137733.0
1569
1 4 9 11 12 14 15 16 18 19 20 24 25 26 31 32 38 39 42 43 44 55 57 63 65 66 67 68 69 73 83 85 86 87 88 89 90 92 94 96 101 106 107 116 118 124 127 130 131 135 137 140 141 142 143 145 150 152 154 158 162 163 166 168 171 172 173 177 178 179 182 184 186 188 189 196 197 